&BANDS
    prefix = 'pwscf'
    outdir = './out/'
    filband = 'bands.dat'
    no_overlap = .true.
/
