# This written input file is used for the bands 
# calculation of cubic Mg. 


&CONTROL
  calculation = 'bands'
  restart_mode = 'from_scratch'
  prefix = 'pwscf'
  outdir = './out/'
  pseudo_dir = './pseudo/'
  tprnfor = .true.
  tstress = .true.
  verbosity = 'high'
  etot_conv_thr = 1.0000000000d-04
  forc_conv_thr = 1.0000000000d-03
/
&SYSTEM
  ibrav = 1
  nat = 5
  ntyp = 3
  nbnd = 29
  celldm(1) = 7.20
  occupations = 'smearing'
  smearing = 'm-v'
  degauss = 1.0000000000d-03
  nspin = 2
  starting_magnetization(1) = 0.5
  starting_magnetization(2) = -0.5
  ecutwfc = 60
  ecutrho = 600
/
&ELECTRONS
  diagonalization = 'cg'
  mixing_mode = 'plain'
  mixing_beta = 6.0000000000d-01
  electron_maxstep = 100
  conv_thr = 1.0000000000d-08
/
&IONS
  ion_dynamics = 'bfgs'
/
ATOMIC_SPECIES
Mg     24.305 Mg.pbe-spn-rrkjus_psl.1.0.0.UPF
O      15.9994 O.pbe-n-rrkjus_psl.1.0.0.UPF
Zn     65.38 Zn.pbe-spn-rrkjus_psl.1.0.0.UPF

ATOMIC_POSITIONS (crystal)
Mg            0.0000000000        0.0000000000        0.0000000000
Zn            0.5000000000        0.5000000000        0.5000000000
O             0.5000000000        0.5000000000        0.0000000000
O             0.5000000000        0.0000000000        0.5000000000
O             0.0000000000        0.5000000000        0.5000000000 

 K_POINTS crystal
         101
        0.0000000000    0.0000000000    0.0000000000    1.0
        0.0000000000    0.0454545455    0.0000000000    1.0
        0.0000000000    0.0909090909    0.0000000000    1.0
        0.0000000000    0.1363636364    0.0000000000    1.0
        0.0000000000    0.1818181818    0.0000000000    1.0
        0.0000000000    0.2272727273    0.0000000000    1.0
        0.0000000000    0.2727272727    0.0000000000    1.0
        0.0000000000    0.3181818182    0.0000000000    1.0
        0.0000000000    0.3636363636    0.0000000000    1.0
        0.0000000000    0.4090909091    0.0000000000    1.0
        0.0000000000    0.4545454545    0.0000000000    1.0
        0.0000000000    0.5000000000    0.0000000000    1.0
        0.0000000000    0.5000000000    0.0454545455    1.0
        0.0000000000    0.5000000000    0.0909090909    1.0
        0.0000000000    0.5000000000    0.1363636364    1.0
        0.0000000000    0.5000000000    0.1818181818    1.0
        0.0000000000    0.5000000000    0.2272727273    1.0
        0.0000000000    0.5000000000    0.2727272727    1.0
        0.0000000000    0.5000000000    0.3181818182    1.0
        0.0000000000    0.5000000000    0.3636363636    1.0
        0.0000000000    0.5000000000    0.4090909091    1.0
        0.0000000000    0.5000000000    0.4545454545    1.0
        0.0000000000    0.5000000000    0.5000000000    1.0
        0.0000000000    0.4687500000    0.4687500000    1.0
        0.0000000000    0.4375000000    0.4375000000    1.0
        0.0000000000    0.4062500000    0.4062500000    1.0
        0.0000000000    0.3750000000    0.3750000000    1.0
        0.0000000000    0.3437500000    0.3437500000    1.0
        0.0000000000    0.3125000000    0.3125000000    1.0
        0.0000000000    0.2812500000    0.2812500000    1.0
        0.0000000000    0.2500000000    0.2500000000    1.0
        0.0000000000    0.2187500000    0.2187500000    1.0
        0.0000000000    0.1875000000    0.1875000000    1.0
        0.0000000000    0.1562500000    0.1562500000    1.0
        0.0000000000    0.1250000000    0.1250000000    1.0
        0.0000000000    0.0937500000    0.0937500000    1.0
        0.0000000000    0.0625000000    0.0625000000    1.0
        0.0000000000    0.0312500000    0.0312500000    1.0
        0.0000000000    0.0000000000    0.0000000000    1.0
       -0.0263157895    0.0263157895    0.0263157895    1.0
       -0.0526315789    0.0526315789    0.0526315789    1.0
       -0.0789473684    0.0789473684    0.0789473684    1.0
       -0.1052631579    0.1052631579    0.1052631579    1.0
       -0.1315789474    0.1315789474    0.1315789474    1.0
       -0.1578947368    0.1578947368    0.1578947368    1.0
       -0.1842105263    0.1842105263    0.1842105263    1.0
       -0.2105263158    0.2105263158    0.2105263158    1.0
       -0.2368421053    0.2368421053    0.2368421053    1.0
       -0.2631578947    0.2631578947    0.2631578947    1.0
       -0.2894736842    0.2894736842    0.2894736842    1.0
       -0.3157894737    0.3157894737    0.3157894737    1.0
       -0.3421052632    0.3421052632    0.3421052632    1.0
       -0.3684210526    0.3684210526    0.3684210526    1.0
       -0.3947368421    0.3947368421    0.3947368421    1.0
       -0.4210526316    0.4210526316    0.4210526316    1.0
       -0.4473684211    0.4473684211    0.4473684211    1.0
       -0.4736842105    0.4736842105    0.4736842105    1.0
       -0.5000000000    0.5000000000    0.5000000000    1.0
       -0.4687500000    0.4687500000    0.5000000000    1.0
       -0.4375000000    0.4375000000    0.5000000000    1.0
       -0.4062500000    0.4062500000    0.5000000000    1.0
       -0.3750000000    0.3750000000    0.5000000000    1.0
       -0.3437500000    0.3437500000    0.5000000000    1.0
       -0.3125000000    0.3125000000    0.5000000000    1.0
       -0.2812500000    0.2812500000    0.5000000000    1.0
       -0.2500000000    0.2500000000    0.5000000000    1.0
       -0.2187500000    0.2187500000    0.5000000000    1.0
       -0.1875000000    0.1875000000    0.5000000000    1.0
       -0.1562500000    0.1562500000    0.5000000000    1.0
       -0.1250000000    0.1250000000    0.5000000000    1.0
       -0.0937500000    0.0937500000    0.5000000000    1.0
       -0.0625000000    0.0625000000    0.5000000000    1.0
       -0.0312500000    0.0312500000    0.5000000000    1.0
        0.0000000000    0.0000000000    0.5000000000    1.0
       -0.0312500000    0.0312500000    0.5000000000    1.0
       -0.0625000000    0.0625000000    0.5000000000    1.0
       -0.0937500000    0.0937500000    0.5000000000    1.0
       -0.1250000000    0.1250000000    0.5000000000    1.0
       -0.1562500000    0.1562500000    0.5000000000    1.0
       -0.1875000000    0.1875000000    0.5000000000    1.0
       -0.2187500000    0.2187500000    0.5000000000    1.0
       -0.2500000000    0.2500000000    0.5000000000    1.0
       -0.2812500000    0.2812500000    0.5000000000    1.0
       -0.3125000000    0.3125000000    0.5000000000    1.0
       -0.3437500000    0.3437500000    0.5000000000    1.0
       -0.3750000000    0.3750000000    0.5000000000    1.0
       -0.4062500000    0.4062500000    0.5000000000    1.0
       -0.4375000000    0.4375000000    0.5000000000    1.0
       -0.4687500000    0.4687500000    0.5000000000    1.0
       -0.5000000000    0.5000000000    0.5000000000    1.0
       -0.4545454545    0.5000000000    0.5000000000    1.0
       -0.4090909091    0.5000000000    0.5000000000    1.0
       -0.3636363636    0.5000000000    0.5000000000    1.0
       -0.3181818182    0.5000000000    0.5000000000    1.0
       -0.2727272727    0.5000000000    0.5000000000    1.0
       -0.2272727273    0.5000000000    0.5000000000    1.0
       -0.1818181818    0.5000000000    0.5000000000    1.0
       -0.1363636364    0.5000000000    0.5000000000    1.0
       -0.0909090909    0.5000000000    0.5000000000    1.0
       -0.0454545455    0.5000000000    0.5000000000    1.0
        0.0000000000    0.5000000000    0.5000000000    1.0






