# This written input file is used to relax cubic Mg with
# the optimised Ecut, Kpoints and lattice parameter.

&CONTROL
  calculation = 'relax'
  prefix = 'pwscf'
  pseudo_dir = './pseudo/'
  outdir = './out/'
  tprnfor = .true.
  tstress = .true.
  verbosity = 'high'
  etot_conv_thr = 1.0000000000d-05
  forc_conv_thr = 1.0000000000d-04
/
&SYSTEM
  ibrav = 1
  nat = 1
  nosym = .false.
  ntyp = 1
  celldm(1) = 6.20       !use optimised lp here 
  occupations = 'smearing'
  smearing = 'cold'
  degauss = 1.4699723600d-02
  ecutwfc = 60           !use optimised ecut here
  ecutrho = 480
/
&ELECTRONS
  diagonalization = 'cg'
  mixing_mode = 'plain'
  conv_thr = 2.0000000000d-10
  electron_maxstep = 80
  mixing_beta = 4.0000000000d-01
/
ATOMIC_SPECIES
Mg     24.305 Mg.pbe-spn-rrkjus_psl.1.0.0.UPF
ATOMIC_POSITIONS crystal
Mg           0.0000000000       0.0000000000       0.0000000000 
K_POINTS automatic
12 12 12 0 0 0           !use optimised kp here








